;; Preprocessed for Astral solver
(set-info :status sat)
;; variables
(declare-const x0 Loc)
(declare-const x1 Loc)
(declare-const x2 Loc)
(declare-const x3 Loc)
(declare-const x4 Loc)
(declare-const x5 Loc)
(declare-const x6 Loc)
(declare-const x7 Loc)
(declare-const x8 Loc)
(declare-const x9 Loc)
(declare-const x10 Loc)
(declare-const x11 Loc)
(declare-const x12 Loc)
(declare-const x13 Loc)
(declare-const x14 Loc)
(declare-const x15 Loc)
(declare-const x16 Loc)
(declare-const x17 Loc)
(declare-const x18 Loc)
(declare-const x19 Loc)
(declare-const x20 Loc)
(declare-const x21 Loc)
(declare-const x22 Loc)
(declare-const x23 Loc)
(declare-const x24 Loc)

(assert 
		(sep 
			(= nil nil)
		(sep 
			(pto x1 x19)
			(ls x9 x6 )
			(pto x17 x3)
			(ls x8 x4 )
			(pto x5 x20)
			(pto x4 x8)
			(pto x13 x11)
			(pto x16 x17)
			(pto x3 x11)
			(pto x15 x3)
			(pto x20 x18)
			(pto x18 x12)
			(ls x14 x11 )
			(pto x2 x10)
			(ls x7 x10 )
			(pto x10 x5)
			(pto x6 x7)
			(ls x12 x19 )
			(ls x19 x15 )
			(pto x11 x20)
		)

		)

)

(assert (not 
		(sep 
			(ls x16 x17 )
			(ls x2 x10 )
			(ls x1 x19 )
			(ls x14 x11 )
			(ls x17 x3 )
			(ls x4 x8 )
			(ls x13 x20 )
			(ls x8 x4 )
			(ls x9 x11 )
		)

))

(check-sat)
